
******************************************************************************
This program contains Ipopt, a library for large-scale nonlinear optimization.
 Ipopt is released as open source code under the Eclipse Public License (EPL).
         For more information visit http://projects.coin-or.org/Ipopt
******************************************************************************

This is Ipopt version 3.12.3, running with linear solver mumps.
NOTE: Other linear solvers might be more efficient (see Ipopt documentation).

Number of nonzeros in equality constraint Jacobian...:       56
Number of nonzeros in inequality constraint Jacobian.:        0
Number of nonzeros in Lagrangian Hessian.............:        0

Total number of variables............................:       15
                     variables with only lower bounds:        0
                variables with lower and upper bounds:       15
                     variables with only upper bounds:        0
Total number of equality constraints.................:       12
Total number of inequality constraints...............:        1
        inequality constraints with only lower bounds:        0
   inequality constraints with lower and upper bounds:        1
        inequality constraints with only upper bounds:        0

iter    objective    inf_pr   inf_du lg(mu)  ||d||  lg(rg) alpha_du alpha_pr  ls
   0  7.0710678e-01 1.67e+00 0.00e+00   0.0 0.00e+00    -  0.00e+00 0.00e+00   0
   1  7.2039032e-01 1.67e-02 1.34e+00  -6.0 1.84e-01    -  8.11e-01 9.90e-01h  1
   2  7.1813133e-01 1.64e-04 1.12e+00  -2.0 4.65e-02    -  9.98e-01 9.90e-01h  1
   3  7.0783821e-01 1.85e-16 3.00e-04  -2.9 3.14e-01    -  1.00e+00 1.00e+00h  1
   4  7.0711892e-01 1.85e-16 1.55e-04  -4.2 9.44e-02    -  1.00e+00 1.00e+00f  1
   5  7.0710679e-01 1.85e-16 5.12e-06  -6.1 1.36e-02    -  1.00e+00 1.00e+00f  1
   6  7.0710678e-01 2.78e-16 5.45e-09 -11.0 3.11e-04    -  1.00e+00 1.00e+00h  1

Number of Iterations....: 6

                                   (scaled)                 (unscaled)
Objective...............:   7.0710678118654913e-01    7.0710678118654913e-01
Dual infeasibility......:   5.4517141262577116e-09    5.4517141262577116e-09
Constraint violation....:   2.7755575615628914e-16    2.7755575615628914e-16
Complementarity.........:   1.3502703387108479e-08    1.3502703387108479e-08
Overall NLP error.......:   1.3502703387108479e-08    1.3502703387108479e-08


Number of objective function evaluations             = 7
Number of objective gradient evaluations             = 7
Number of equality constraint evaluations            = 7
Number of inequality constraint evaluations          = 7
Number of equality constraint Jacobian evaluations   = 7
Number of inequality constraint Jacobian evaluations = 7
Number of Lagrangian Hessian evaluations             = 0
Total CPU secs in IPOPT (w/o function evaluations)   =      0.012
Total CPU secs in NLP function evaluations           =      0.001

EXIT: Optimal Solution Found.
